40
    83    11    94    26    20    48    38    11    42     9    40    10    92    24    97    15    41    73    80    23    89    93    42    31    64    70    12    42    22    46    96    62    47    16    82    98    51    26    32    61
     3     6     9     3     9     7     7    10     7     6     5     9     5     2     5     9    10    10     6    10     8     2     8    10     1     3     7     3     4     8     9     9     7     5     7     2     8     9     4     6
  1756  1615  1772  1197  1866  1894  1703  1596  1847  1700  1347  1676  1734  1532  1441  1741  1818  1588  1715  1927  1794  1548  1811  1788  1861  1520  1781  1838  1863  1825  1437  1566  1608  1607  1644  1763  1581  1734  1313  1758
